import ReturnResults.dzn;

interface iControl
{
	in returnResult tac_getTheBall();
  	in returnResult tac_shootBall();
  	in returnResult tac_attack();

  	behaviour
  	{
  		on tac_getTheBall:{
  			reply(returnResult.busy);
  		}
  		on tac_getTheBall:{
  			reply(returnResult.success);
  		}
  		on tac_getTheBall:{
  			reply(returnResult.fail);
  		}
  		on tac_shootBall:{
  			reply(returnResult.busy);
  		}
  		on tac_shootBall:{
  			reply(returnResult.success);
  		}
  		on tac_shootBall:{
  			reply(returnResult.fail);
  		}
  		on tac_attack:{
  			reply(returnResult.busy);
  		}
  		on tac_attack:{
  			reply(returnResult.success);
  		}
  		on tac_attack:{
  			reply(returnResult.fail);
  		}
	}
}

interface iBallHandling
{
	in returnResult handleTheBall();
	
	behaviour
  	{
		on handleTheBall:
		{
			reply(returnResult.success);
		}   	
		on handleTheBall:
		{
			reply(returnResult.fail);
		}	
  	}
}

interface iShooting
{
	in returnResult shootTheBall();
	
	behaviour
  	{
   		on shootTheBall:
   		{
   			reply(returnResult.success);
   		}
   		on shootTheBall:
   		{
   			reply(returnResult.fail);
   		}
   		
  	}
}



interface iWheelDriver
{
	in returnResult getToTheBall();
	
	behaviour
	{
	  	on getToTheBall:
   		{
   			reply(returnResult.success);
   		}
   		on getToTheBall:
   		{
   			reply(returnResult.fail);
   		}
	}
}

interface iWorldModel
{
  	extern FloatRef $float&$;	
	in returnResult findTheBall(FloatRef x, FloatRef y, FloatRef z);
	
	behaviour
	{
	  	on findTheBall:
   		{
   			reply(returnResult.success);
   		}
   		on findTheBall:
   		{
   			reply(returnResult.fail);
   		}
	}
}

interface iNavigation
{
  	extern FloatRef $float&$;																																																																																																																																																																																																																																																																																																																																																																			 
	in returnResult Navigate(FloatRef x, FloatRef y, FloatRef z);
	
	behaviour
	{
	  	on Navigate:
   		{
   			reply(returnResult.success);
   		}
   		on Navigate:
   		{
   			reply(returnResult.fail);
   		}
	}
}